12
benzene, planar reference frame
C  1.3960  0.0000  0.0000
C  0.6980  1.2090  0.0000
C -0.6980  1.2090  0.0000
C -1.3960  0.0000  0.0000
C -0.6980 -1.2090  0.0000
C  0.6980 -1.2090  0.0000
H  2.4790  0.0000  0.0000
H  1.2400  2.1470  0.0000
H -1.2400  2.1470  0.0000
H -2.4790  0.0000  0.0000
H -1.2400 -2.1470  0.0000
H  1.2400 -2.1470  0.0000
12
benzene, distorted trajectory frame
C  1.3960  0.0000  0.1200
C  0.6980  1.2090 -0.0800
C -0.6980  1.2090  0.0600
C -1.3960  0.0000 -0.1200
C -0.6980 -1.2090  0.0800
C  0.6980 -1.2090 -0.0600
H  2.4790  0.0000  0.2000
H  1.2400  2.1470 -0.1400
H -1.2400  2.1470  0.1100
H -2.4790  0.0000 -0.2000
H -1.2400 -2.1470  0.1400
H  1.2400 -2.1470 -0.1100
